222 5
10 10 10 10 10 

0 0 0 0 0 0 2 2 54 
0 0 0 0 0 0 3 3 5 6 
2 1 1 1 1 1 3 12 8 4 
4 1 1 2 4 5 5 17 15 11 10 9 
4 2 2 4 4 1 2 10 7 
4 1 3 2 3 1 2 15 7 
3 5 3 4 1 3 5 17 16 11 9 214 
9 2 4 1 2 4 3 17 10 9 
7 2 4 2 2 2 4 26 19 18 14 
2 3 1 4 4 1 3 20 16 13 
8 3 3 2 3 2 2 18 13 
2 3 1 2 1 2 4 26 24 23 18 
8 1 4 3 2 3 4 26 23 22 19 
2 5 2 2 2 4 4 23 22 21 20 
8 1 4 3 3 2 4 26 22 21 19 
10 1 1 3 2 2 4 26 24 22 21 
7 3 5 3 2 2 2 26 19 
10 1 3 2 2 2 2 22 21 
1 2 1 1 4 2 2 29 24 
8 4 3 3 2 4 2 29 24 
10 2 4 5 3 1 2 29 25 
10 2 2 3 2 5 3 29 28 27 
8 2 3 4 3 6 3 29 28 27 
2 2 2 3 2 3 1 25 
1 1 2 2 1 1 2 28 27 
9 4 4 1 2 3 2 29 28 
3 4 1 4 2 3 4 35 34 32 30 
4 1 2 3 2 3 3 35 32 31 
6 1 1 1 2 3 3 35 34 32 
1 3 1 4 1 6 2 38 33 
1 3 2 3 3 2 6 52 40 39 38 37 36 
6 3 1 1 4 3 1 33 
9 4 2 2 1 2 6 52 51 40 39 37 36 
9 5 1 2 2 3 5 40 39 38 37 36 
1 3 2 3 2 4 5 52 51 39 37 36 
5 3 1 3 2 1 8 50 48 47 46 45 44 42 41 
7 2 1 2 4 2 6 48 47 46 45 43 42 
4 4 3 3 6 3 5 51 50 44 43 42 
1 2 3 1 1 1 4 49 48 47 46 
7 2 5 4 1 1 3 45 44 42 
6 1 5 2 2 2 2 49 43 
5 1 3 2 3 3 1 53 
9 3 4 1 2 2 1 53 
10 1 2 3 3 2 1 53 
9 3 4 5 4 1 1 53 
7 2 4 2 1 2 1 53 
3 3 3 1 4 2 1 53 
2 5 1 3 3 1 1 53 
6 1 4 1 4 4 1 53 
2 4 2 2 3 3 1 53 
2 4 3 2 2 3 1 53 
9 3 1 3 4 1 1 53 
0 0 0 0 0 0 1 222 
0 0 0 0 0 0 5 55 56 57 58 59 
8 0 0 0 0 1 3 63 61 60 
8 0 0 0 0 3 3 64 63 62 
10 0 0 0 0 4 2 63 60 
7 0 0 0 0 4 2 63 62 
7 0 0 0 0 2 1 60 
10 0 0 0 0 3 1 62 
6 0 0 0 0 2 2 62 159 
2 0 0 0 0 2 1 65 
5 0 0 0 0 2 1 65 
10 0 0 0 0 2 1 65 
0 0 0 0 0 0 2 66 78 
0 0 0 0 0 0 5 67 69 70 76 217 
2 0 0 0 1 0 2 75 68 
3 0 0 0 5 0 3 73 72 71 
10 0 0 0 3 0 1 74 
8 0 0 0 3 0 1 71 
5 0 0 0 2 0 1 77 
3 0 0 0 3 0 1 77 
6 0 0 0 3 0 1 77 
9 0 0 0 1 0 1 77 
6 0 0 0 3 0 1 77 
2 0 0 0 1 0 1 77 
0 0 0 0 0 0 2 120 152 
0 0 0 0 0 0 5 79 83 84 85 89 
5 1 0 1 1 1 3 87 82 80 
7 2 0 1 1 2 2 95 81 
6 3 0 3 1 2 8 118 107 99 94 93 92 88 86 
8 1 0 1 1 4 10 118 107 105 101 98 97 96 94 92 91 
9 3 0 2 3 4 6 118 107 94 93 92 86 
5 3 0 2 6 1 7 105 104 103 99 98 90 87 
1 4 0 2 2 3 4 99 92 91 88 
5 3 0 2 1 3 7 106 105 104 103 101 98 90 
4 2 0 2 1 1 4 101 95 94 93 
10 4 0 4 1 4 4 106 104 103 97 
4 2 0 2 3 1 4 109 107 106 94 
9 4 0 2 1 3 3 112 111 97 
1 1 0 2 4 2 2 112 93 
10 5 0 4 4 4 3 117 104 100 
4 4 0 5 4 1 3 117 111 100 
3 4 0 3 2 3 3 117 112 100 
4 1 0 3 3 1 3 110 109 107 
10 1 0 4 1 4 2 106 103 
3 3 0 2 5 1 2 117 100 
6 2 0 2 3 1 2 117 100 
4 1 0 3 3 2 2 111 102 
1 3 0 5 2 3 1 102 
10 2 0 1 5 2 5 117 116 115 114 111 
10 1 0 3 5 5 4 116 110 108 200 
4 2 0 3 1 2 3 114 113 109 
7 1 0 4 1 3 3 114 112 110 
2 1 0 3 2 2 3 114 113 109 
7 2 0 3 5 3 2 111 108 
7 3 0 2 2 1 2 111 108 
9 4 0 2 2 4 2 115 114 
4 2 0 1 2 1 2 117 116 
6 3 0 1 4 4 1 113 
10 2 0 3 1 2 1 113 
8 1 0 1 3 1 1 115 
8 2 0 3 1 4 1 119 
10 4 0 1 2 7 1 119 
2 3 0 2 2 2 1 119 
1 4 0 4 3 2 1 119 
2 4 0 4 4 1 1 119 
9 2 0 2 2 3 1 119 
0 0 0 0 0 0 1 222 
0 0 0 0 0 0 6 121 122 123 124 127 150 
10 1 0 0 1 1 4 149 131 128 125 
3 4 0 0 1 2 4 134 132 131 125 
5 7 0 0 4 1 4 134 128 126 125 
9 2 0 0 2 2 3 141 131 125 
4 2 0 0 2 3 3 140 136 129 
9 2 0 0 3 1 4 146 145 132 130 
3 4 0 0 3 3 5 148 145 135 134 132 
4 3 0 0 1 1 5 145 144 140 139 135 
10 1 0 0 3 3 3 145 144 130 
8 3 0 0 3 3 3 147 139 135 
3 2 0 0 6 6 2 140 133 
6 1 0 0 2 2 3 144 139 137 
8 2 0 0 2 4 1 135 
2 4 0 0 2 1 2 144 138 
8 2 0 0 1 3 1 137 
3 2 0 0 1 3 2 146 143 
8 2 0 0 2 4 1 138 
9 1 0 0 7 3 1 142 
4 2 0 0 1 1 2 143 199 
3 3 0 0 2 4 1 146 
8 2 0 0 2 2 1 145 
6 3 0 0 3 2 1 151 
5 3 0 0 1 2 1 151 
7 2 0 0 2 3 1 151 
2 4 0 0 6 1 1 151 
5 1 0 0 3 4 1 151 
6 4 0 0 2 2 1 151 
7 2 0 0 3 1 1 151 
10 1 0 0 2 4 1 151 
5 3 0 0 2 3 1 151 
0 0 0 0 0 0 1 222 
0 0 0 0 0 0 2 153 154 
2 0 0 0 1 0 5 162 160 158 156 165 
10 0 0 0 2 0 3 162 157 155 
9 0 0 0 2 0 3 161 160 159 
5 0 0 0 1 0 2 161 159 
5 0 0 0 3 0 2 160 159 
9 0 0 0 4 0 1 159 
1 0 0 0 2 0 1 163 
9 0 0 0 5 0 1 163 
7 0 0 0 3 0 1 163 
5 0 0 0 2 0 1 163 
0 0 0 0 0 0 2 164 186 
0 0 0 0 0 0 7 165 166 167 169 170 171 172 
4 0 0 1 0 1 3 184 176 168 
8 0 0 2 0 4 6 184 183 181 178 176 174 
1 0 0 1 0 1 5 184 179 178 176 173 
9 0 0 3 0 2 4 183 178 174 173 
1 0 0 2 0 1 4 183 178 175 174 
5 0 0 1 0 1 5 183 182 181 178 176 
8 0 0 1 0 3 5 183 182 181 178 177 
4 0 0 3 0 1 3 184 177 173 
5 0 0 3 0 5 4 182 181 180 217 
1 0 0 2 0 1 2 182 177 
9 0 0 5 0 1 2 181 180 
7 0 0 4 0 2 1 177 
2 0 0 2 0 5 1 180 
6 0 0 3 0 2 1 180 
10 0 0 1 0 4 1 180 
3 0 0 3 0 4 1 185 
9 0 0 2 0 3 1 185 
2 0 0 4 0 4 1 185 
9 0 0 3 0 3 1 185 
9 0 0 4 0 2 1 185 
0 0 0 0 0 0 1 222 
0 0 0 0 0 0 3 187 189 196 
2 0 0 0 1 0 5 195 194 193 190 188 
10 0 0 0 3 0 2 192 191 
6 0 0 0 5 0 1 190 
7 0 0 0 2 0 1 197 
9 0 0 0 3 0 1 197 
6 0 0 0 5 0 2 197 203 
2 0 0 0 1 0 1 197 
6 0 0 0 2 0 1 197 
8 0 0 0 1 0 1 197 
5 0 0 0 2 0 1 197 
0 0 0 0 0 0 2 198 210 
0 0 0 0 0 0 4 199 200 201 203 
7 0 0 1 0 0 3 207 206 202 
5 0 0 3 0 0 3 208 207 204 
7 0 0 4 0 0 4 206 205 204 220 
7 0 0 1 0 0 2 205 204 
8 0 0 7 0 0 1 204 
9 0 0 1 0 0 1 209 
3 0 0 2 0 0 1 209 
6 0 0 3 0 0 1 209 
8 0 0 1 0 0 1 209 
8 0 0 2 0 0 1 209 
0 0 0 0 0 0 1 222 
0 0 0 0 0 0 3 211 212 213 
3 0 0 0 0 1 4 217 216 215 214 
9 0 0 0 0 2 3 218 216 215 
3 0 0 0 0 3 3 217 216 214 
3 0 0 0 0 2 2 220 219 
10 0 0 0 0 4 2 220 219 
3 0 0 0 0 1 1 219 
1 0 0 0 0 1 1 220 
3 0 0 0 0 5 1 219 
1 0 0 0 0 3 1 221 
3 0 0 0 0 3 1 221 
0 0 0 0 0 0 1 222 
0 0 0 0 0 0 0 
